; benchmark generated from python API
(set-info :status unknown)
(declare-datatypes ((IntState 0)) (((Mk1 (val1 Int)) (Mk2 (val2 Int)))))
 (declare-fun c_main_~z~0 () Int)
(declare-fun c_main_~x~0 () Int)
(declare-fun c_main_~y~0 () Int)
(assert
 (let (($x134 (exists ((|v_main_#t~nondet2_7_st| IntState) (val!6 Int) )(exists ((|v_main_#t~nondet2_5_st| IntState) (val!7 Int) )(exists ((|v_main_#t~nondet2_6_st| IntState) (val!8 Int) )(let ((?x93 (+ (* 4194304 (val2 |v_main_#t~nondet2_7_st|)) (* 4194304 (val2 |v_main_#t~nondet2_5_st|)) (* 4194304 (val2 |v_main_#t~nondet2_6_st|)))))
 (let (($x112 (not (= |v_main_#t~nondet2_6_st| (Mk1 val!8)))))
 (let (($x98 (not (= |v_main_#t~nondet2_5_st| (Mk1 val!7)))))
 (let (($x54 (not (= |v_main_#t~nondet2_7_st| (Mk1 val!6)))))
 (and $x54 $x98 $x112 (= c_main_~z~0 ?x93)))))))
 )
 )
 ))
 (let (($x116 (exists ((|v_main_#t~nondet0_7_st| IntState) (val!3 Int) )(exists ((|v_main_#t~nondet0_5_st| IntState) (val!4 Int) )(exists ((|v_main_#t~nondet0_6_st| IntState) (val!5 Int) )(let ((?x71 (+ (* 1048576 (val2 |v_main_#t~nondet0_7_st|)) (* 1048576 (val2 |v_main_#t~nondet0_5_st|)) (* 1048576 (val2 |v_main_#t~nondet0_6_st|)))))
 (let (($x112 (not (= |v_main_#t~nondet0_6_st| (Mk1 val!5)))))
 (let (($x98 (not (= |v_main_#t~nondet0_5_st| (Mk1 val!4)))))
 (let (($x54 (not (= |v_main_#t~nondet0_7_st| (Mk1 val!3)))))
 (and $x54 $x98 $x112 (= ?x71 c_main_~x~0)))))))
 )
 )
 ))
 (let (($x113 (exists ((|v_main_#t~nondet1_6_st| IntState) (val!0 Int) )(exists ((|v_main_#t~nondet1_7_st| IntState) (val!1 Int) )(exists ((|v_main_#t~nondet1_5_st| IntState) (val!2 Int) )(let ((?x53 (+ (* 2097152 (val2 |v_main_#t~nondet1_6_st|)) (* 2097152 (val2 |v_main_#t~nondet1_7_st|)) (* 2097152 (val2 |v_main_#t~nondet1_5_st|)))))
 (let (($x112 (not (= |v_main_#t~nondet1_5_st| (Mk1 val!2)))))
 (let (($x98 (not (= |v_main_#t~nondet1_7_st| (Mk1 val!1)))))
 (let (($x54 (not (= |v_main_#t~nondet1_6_st| (Mk1 val!0)))))
 (and $x54 $x98 $x112 (= ?x53 c_main_~y~0)))))))
 )
 )
 ))
 (let (($x63 (exists ((|v_main_#t~nondet2_7| Int) )(exists ((|v_main_#t~nondet2_8| Int) )(exists ((|v_main_#t~nondet2_5| Int) )(exists ((|v_main_#t~nondet2_6| Int) )(= (+ (* 4194304 |v_main_#t~nondet2_7|) (* 4194304 |v_main_#t~nondet2_8|) (* 4194304 |v_main_#t~nondet2_5|) (* 4194304 |v_main_#t~nondet2_6|)) c_main_~z~0))
 )
 )
 )
 ))
 (let (($x56 (exists ((|v_main_#t~nondet0_7| Int) )(exists ((|v_main_#t~nondet0_8| Int) )(exists ((|v_main_#t~nondet0_5| Int) )(exists ((|v_main_#t~nondet0_6| Int) )(= (+ (* 1048576 |v_main_#t~nondet0_7|) (* 1048576 |v_main_#t~nondet0_8|) (* 1048576 |v_main_#t~nondet0_5|) (* 1048576 |v_main_#t~nondet0_6|)) c_main_~x~0))
 )
 )
 )
 ))
 (let (($x69 (exists ((|v_main_#t~nondet1_8| Int) )(exists ((|v_main_#t~nondet1_6| Int) )(exists ((|v_main_#t~nondet1_7| Int) )(exists ((|v_main_#t~nondet1_5| Int) )(= (+ (* 2097152 |v_main_#t~nondet1_8|) (* 2097152 |v_main_#t~nondet1_6|) (* 2097152 |v_main_#t~nondet1_7|) (* 2097152 |v_main_#t~nondet1_5|)) c_main_~y~0))
 )
 )
 )
 ))
 (and (and $x69 $x56 $x63) (not (and $x113 $x116 $x134))))))))))
(check-sat)
